************************************************************************
file with basedata            : J1206_.BAS
initial value random generator: 435983485
************************************************************************
projects                      :  1
jobs (incl. supersource/sink ):  122
horizon                       :  696
RESOURCES
  - renewable                 :  4   R
  - nonrenewable              :  0   N
  - doubly constrained        :  0   D
************************************************************************
PROJECT INFORMATION:
pronr.  #jobs rel.date duedate tardcost  MPM-Time
    1    120      0       71       78       71
************************************************************************
PRECEDENCE RELATIONS:
jobnr.    #modes  #successors   successors
   1        1          3           2   3   4
   2        1          3           7  14  60
   3        1          3           6   9  16
   4        1          2           5  12
   5        1          3          13  24  28
   6        1          3           8  22  23
   7        1          3          10  17  19
   8        1          1          57
   9        1          1          70
  10        1          2          11  76
  11        1          3          15  21  30
  12        1          3          18  27  84
  13        1          3          26  32  41
  14        1          2          35  78
  15        1          3          33  48  83
  16        1          1          20
  17        1          1          40
  18        1          1          67
  19        1          2          81 100
  20        1          2          54  86
  21        1          1          51
  22        1          2          31  37
  23        1          3          47  63  73
  24        1          3          25  44  45
  25        1          3          29  71 101
  26        1          1          76
  27        1          2          77  98
  28        1          1          46
  29        1          3          34  36  82
  30        1          1          54
  31        1          2          61  88
  32        1          3          53  68  97
  33        1          2          46  96
  34        1          3          42  49  73
  35        1          1          38
  36        1          3          39  64  90
  37        1          1          52
  38        1          1          47
  39        1          3          43  65 104
  40        1          2          56  96
  41        1          1          77
  42        1          2          57  84
  43        1          1          83
  44        1          1          48
  45        1          3          80  99 107
  46        1          3          58  89 116
  47        1          2          59 118
  48        1          1          50
  49        1          1          74
  50        1          1         120
  51        1          1          70
  52        1          1          88
  53        1          1          55
  54        1          1          88
  55        1          1         109
  56        1          1          65
  57        1          1          87
  58        1          1          62
  59        1          3          66  85 103
  60        1          1          91
  61        1          1          75
  62        1          1          69
  63        1          1          84
  64        1          1          94
  65        1          1          79
  66        1          1         110
  67        1          2          68  92
  68        1          1          72
  69        1          1         113
  70        1          1          93
  71        1          2          97 115
  72        1          1         108
  73        1          1          81
  74        1          1         119
  75        1          1          92
  76        1          1          91
  77        1          1         102
  78        1          1         102
  79        1          1          83
  80        1          2         112 114
  81        1          1         117
  82        1          1         109
  83        1          1         105
  84        1          1         114
  85        1          1         112
  86        1          1         112
  87        1          1         121
  88        1          2         108 110
  89        1          1          97
  90        1          1         105
  91        1          1         108
  92        1          1          95
  93        1          1          95
  94        1          1          95
  95        1          1         102
  96        1          1         111
  97        1          1         105
  98        1          1          99
  99        1          1         116
 100        1          2         103 117
 101        1          1         107
 102        1          2         106 107
 103        1          1         109
 104        1          1         113
 105        1          1         114
 106        1          1         117
 107        1          1         118
 108        1          2         116 118
 109        1          1         111
 110        1          2         111 115
 111        1          1         113
 112        1          1         115
 113        1          1         120
 114        1          1         120
 115        1          1         119
 116        1          1         121
 117        1          1         121
 118        1          1         119
 119        1          1         122
 120        1          1         122
 121        1          1         122
 122        1          0        
************************************************************************
REQUESTS/DURATIONS:
jobnr. mode duration  R 1  R 2  R 3  R 4
------------------------------------------------------------------------
  1      1     0       0    0    0    0
  2      1     2       0    0    0    5
  3      1     2       0    0    0    8
  4      1     1       2    8    5    0
  5      1     3       1    0    0    7
  6      1     3       8    0    2   10
  7      1     1       0    0   10    1
  8      1     7       0   10    6    7
  9      1     6       0    8    0    0
 10      1     6       0    0    1    8
 11      1     8       7    6    0    0
 12      1     1       0    4    1    0
 13      1     1       3    0    1    6
 14      1     7       0    0    1    0
 15      1     2       0    3    6    0
 16      1     9       2    1    0    9
 17      1     8       0    4    6    2
 18      1     9       0    0    6    0
 19      1    10       0    0    1    6
 20      1     4       4    4    0    0
 21      1     6       0   10    0    0
 22      1     2       0    0    0    3
 23      1     6       9    0    0    0
 24      1     9       0    8    5    0
 25      1     3       0    7   10    0
 26      1     6       0    7    0    2
 27      1     2       5    1   10    0
 28      1     6       6    0    0    0
 29      1    10       8    3    0    4
 30      1     6       0    6    0    0
 31      1     7       7    7    0    0
 32      1     8      10    0    0   10
 33      1     9       7    0    1    3
 34      1     5       0    0    3    0
 35      1     1       6    4   10    9
 36      1     4       6    0    5    0
 37      1     8       7   10    0    0
 38      1     5       1    4    7    0
 39      1     4       8    2    0    3
 40      1     5       8    9    1    0
 41      1     3       9    6    5    0
 42      1     2       6    0    0   10
 43      1     4       5    0    0    0
 44      1     5       0    0    4    0
 45      1     5       1    0    0    1
 46      1     9       4    1    8   10
 47      1     3       0    7    0    0
 48      1     2       1    5    2    0
 49      1     1       1    2    0    0
 50      1     9       0    0   10   10
 51      1     7       6    0    3    0
 52      1     1       0    0    4    0
 53      1     6       0   10    0    5
 54      1     8       3    0    0    7
 55      1     4       6    0    0    0
 56      1     8       0    1    5    0
 57      1     9       1    0    0    0
 58      1     2       2    0    0    4
 59      1     7       0    0    0    3
 60      1     8       0   10    0    0
 61      1     9       0    0    7    2
 62      1     8       5    8   10    6
 63      1     8       0    0    0    2
 64      1     4       3    9    0    6
 65      1     8       0    0    0    5
 66      1     8       6    0    0    0
 67      1    10       3    5    6    0
 68      1     9       0    0    7    1
 69      1     8       2    0    0    0
 70      1     4       0    3    0    0
 71      1     7       0    4   10    4
 72      1     5       9    0   10    5
 73      1     7       0    0   10    0
 74      1     9       2    1    0    0
 75      1    10       1   10    0    0
 76      1     9       6    0    6    0
 77      1     9       0    0    0    7
 78      1     5       0    5    2    0
 79      1     9       0    0    1    4
 80      1     3       0    0    0    7
 81      1     5       0    5    7    0
 82      1     6       3    0    4    0
 83      1     2       0    4    0    2
 84      1     4       9    0    1    0
 85      1    10       0    0    0    1
 86      1    10       0    1    7    0
 87      1     3       0    0    0    9
 88      1     5       1    0    0    3
 89      1     1       0   10    0    0
 90      1    10       0    4    9    6
 91      1     7       9   10    0    0
 92      1     2       4    0    0    0
 93      1     4       0    0    0   10
 94      1     8       0    5    0    2
 95      1     6       0    0    8    8
 96      1     1       0    2    1   10
 97      1     6       7    0    7    1
 98      1     8       0    4    0    1
 99      1    10       4    0    3   10
100      1     5       5   10    5    0
101      1     6       1    8    8    0
102      1     6       6    0    6    2
103      1    10      10    0    5    0
104      1    10       3    0    4    0
105      1     9       1    2    0    6
106      1     2       0    0    0    1
107      1     4       6    0    0    3
108      1     8       0    6   10    2
109      1     6       6    4    0    0
110      1    10       9    0    0    0
111      1     6       0    7   10    3
112      1     2       6    9    3    8
113      1     3       1    7    0    0
114      1     7      10    0    0   10
115      1     8       4   10    0   10
116      1     6       0    0    0    9
117      1    10       8    4    0    0
118      1    10       0    0    5    6
119      1     3       0    0    1    0
120      1     1       3    0    5    3
121      1     2       0    0   10    0
122      1     0       0    0    0    0
************************************************************************
RESOURCEAVAILABILITIES:
  R 1  R 2  R 3  R 4
   15   17   15   14
************************************************************************
